p cnf 536 1818
c p weight -213 1 0
c p weight 213 -1 0
c p weight 217 6.12323399573676603586882014729198302312846062338790031898128063403419218957424163818359375E-17 0
c p weight -217 1 0
c p weight 218 1 0
c p weight -218 1 0
c p weight -215 1 0
c p weight 215 -1 0
c p weight -219 1 0
c p weight 219 -1 0
c p weight -221 1 0
c p weight 221 -1 0
c p weight -224 1 0
c p weight 224 -1 0
c p weight -227 1 0
c p weight 227 -1 0
c p weight -230 1 0
c p weight 230 -1 0
c p weight -233 1 0
c p weight 233 -1 0
c p weight -236 1 0
c p weight 236 -1 0
c p weight -239 1 0
c p weight 239 -1 0
c p weight -242 1 0
c p weight 242 -1 0
c p weight -245 1 0
c p weight 245 -1 0
c p weight -248 1 0
c p weight 248 -1 0
c p weight -251 1 0
c p weight 251 -1 0
c p weight -254 1 0
c p weight 254 -1 0
c p weight -257 1 0
c p weight 257 -1 0
c p weight -260 1 0
c p weight 260 -1 0
c p weight -263 1 0
c p weight 263 -1 0
c p weight -266 1 0
c p weight 266 -1 0
c p weight -269 1 0
c p weight 269 -1 0
c p weight -272 1 0
c p weight 272 -1 0
c p weight -275 1 0
c p weight 275 -1 0
c p weight -278 1 0
c p weight 278 -1 0
c p weight -281 1 0
c p weight 281 -1 0
c p weight -284 1 0
c p weight 284 -1 0
c p weight -287 1 0
c p weight 287 -1 0
c p weight -290 1 0
c p weight 290 -1 0
c p weight -293 1 0
c p weight 293 -1 0
c p weight -296 1 0
c p weight 296 -1 0
c p weight -299 1 0
c p weight 299 -1 0
c p weight -302 1 0
c p weight 302 -1 0
c p weight -305 1 0
c p weight 305 -1 0
c p weight -308 1 0
c p weight 308 -1 0
c p weight -311 1 0
c p weight 311 -1 0
c p weight -314 1 0
c p weight 314 -1 0
c p weight -317 1 0
c p weight 317 -1 0
c p weight -320 1 0
c p weight 320 -1 0
c p weight -323 1 0
c p weight 323 -1 0
c p weight -326 1 0
c p weight 326 -1 0
c p weight -329 1 0
c p weight 329 -1 0
c p weight -332 1 0
c p weight 332 -1 0
c p weight -335 1 0
c p weight 335 -1 0
c p weight -338 1 0
c p weight 338 -1 0
c p weight -341 1 0
c p weight 341 -1 0
c p weight -344 1 0
c p weight 344 -1 0
c p weight -347 1 0
c p weight 347 -1 0
c p weight -350 1 0
c p weight 350 -1 0
c p weight -353 1 0
c p weight 353 -1 0
c p weight -356 1 0
c p weight 356 -1 0
c p weight -359 1 0
c p weight 359 -1 0
c p weight -362 1 0
c p weight 362 -1 0
c p weight -365 1 0
c p weight 365 -1 0
c p weight -368 1 0
c p weight 368 -1 0
c p weight -371 1 0
c p weight 371 -1 0
c p weight -374 1 0
c p weight 374 -1 0
c p weight -377 1 0
c p weight 377 -1 0
c p weight -380 1 0
c p weight 380 -1 0
c p weight -383 1 0
c p weight 383 -1 0
c p weight -386 1 0
c p weight 386 -1 0
c p weight -389 1 0
c p weight 389 -1 0
c p weight -392 1 0
c p weight 392 -1 0
c p weight -395 1 0
c p weight 395 -1 0
c p weight -398 1 0
c p weight 398 -1 0
c p weight -401 1 0
c p weight 401 -1 0
c p weight -404 1 0
c p weight 404 -1 0
c p weight -407 1 0
c p weight 407 -1 0
c p weight -410 1 0
c p weight 410 -1 0
c p weight -413 1 0
c p weight 413 -1 0
c p weight -416 1 0
c p weight 416 -1 0
c p weight -419 1 0
c p weight 419 -1 0
c p weight -422 1 0
c p weight 422 -1 0
c p weight -425 1 0
c p weight 425 -1 0
c p weight -428 1 0
c p weight 428 -1 0
c p weight -431 1 0
c p weight 431 -1 0
c p weight -434 1 0
c p weight 434 -1 0
c p weight -437 1 0
c p weight 437 -1 0
c p weight -440 1 0
c p weight 440 -1 0
c p weight -443 1 0
c p weight 443 -1 0
c p weight -446 1 0
c p weight 446 -1 0
c p weight -449 1 0
c p weight 449 -1 0
c p weight -452 1 0
c p weight 452 -1 0
c p weight -455 1 0
c p weight 455 -1 0
c p weight -458 1 0
c p weight 458 -1 0
c p weight -461 1 0
c p weight 461 -1 0
c p weight -464 1 0
c p weight 464 -1 0
c p weight -467 1 0
c p weight 467 -1 0
c p weight -470 1 0
c p weight 470 -1 0
c p weight -473 1 0
c p weight 473 -1 0
c p weight -476 1 0
c p weight 476 -1 0
c p weight -479 1 0
c p weight 479 -1 0
c p weight -482 1 0
c p weight 482 -1 0
c p weight -485 1 0
c p weight 485 -1 0
c p weight -488 1 0
c p weight 488 -1 0
c p weight -491 1 0
c p weight 491 -1 0
c p weight -494 1 0
c p weight 494 -1 0
c p weight -497 1 0
c p weight 497 -1 0
c p weight -500 1 0
c p weight 500 -1 0
c p weight -503 1 0
c p weight 503 -1 0
c p weight -506 1 0
c p weight 506 -1 0
c p weight -509 1 0
c p weight 509 -1 0
c p weight -512 1 0
c p weight 512 -1 0
c p weight -515 1 0
c p weight 515 -1 0
c p weight -518 1 0
c p weight 518 -1 0
c p weight -521 1 0
c p weight 521 -1 0
c p weight -524 1 0
c p weight 524 -1 0
c p weight -527 1 0
c p weight 527 -1 0
c p weight -530 1 0
c p weight 530 -1 0
c p weight -533 1 0
c p weight 533 -1 0
c p weight 536 0.5 0
c p weight -536 1 0
536 0
-211 0
-209 0
-207 0
-205 0
-203 0
-201 0
-199 0
-197 0
-195 0
-193 0
-191 0
-189 0
-187 0
-185 0
-183 0
-181 0
-179 0
-177 0
-175 0
-173 0
-171 0
-169 0
-167 0
-165 0
-163 0
-161 0
-159 0
-157 0
-155 0
-153 0
-151 0
-149 0
-147 0
-145 0
-143 0
-141 0
-139 0
-137 0
-135 0
-133 0
-131 0
-129 0
-127 0
-125 0
-123 0
-121 0
-119 0
-117 0
-115 0
-113 0
-111 0
-109 0
-107 0
-105 0
-103 0
-101 0
-99 0
-97 0
-95 0
-93 0
-91 0
-89 0
-87 0
-85 0
-83 0
-81 0
-79 0
-77 0
-75 0
-73 0
-71 0
-69 0
-67 0
-65 0
-63 0
-61 0
-59 0
-57 0
-55 0
-53 0
-51 0
-49 0
-47 0
-45 0
-43 0
-41 0
-39 0
-37 0
-35 0
-33 0
-31 0
-29 0
-27 0
-25 0
-23 0
-21 0
-19 0
-17 0
-15 0
-13 0
-11 0
-9 0
-7 0
-5 0
-3 0
-1 0
-213 211 0
-213 212 0
213 -211 -212 0
214 211 -212 0
214 -211 212 0
-214 211 212 0
-214 -211 -212 0
-215 216 0
-215 214 0
-215 -211 0
215 -216 211 -214 0
216 -211 214 0
-216 211 214 0
-217 214 0
216 -217 -211 0
-216 -217 211 0
216 217 211 -214 0
-216 217 -211 -214 0
-218 214 0
216 -218 211 0
-216 -218 -211 0
216 218 -211 -214 0
-216 218 211 -214 0
-219 216 0
-219 214 0
219 -216 -214 0
220 216 -214 0
220 -216 214 0
-220 216 214 0
-220 -216 -214 0
-221 216 0
-221 210 0
-221 209 -220 0
-221 -209 220 0
221 -216 209 220 -210 0
221 -216 -209 -220 -210 0
223 216 -209 0
223 -216 209 0
-223 216 209 0
-223 -216 -209 0
222 220 -210 0
222 -220 210 0
-222 220 210 0
-222 -220 -210 0
-224 223 0
-224 208 0
-224 207 -210 0
-224 -207 210 0
224 -223 207 210 -208 0
224 -223 -207 -210 -208 0
226 223 -207 0
226 -223 207 0
-226 223 207 0
-226 -223 -207 0
225 210 -208 0
225 -210 208 0
-225 210 208 0
-225 -210 -208 0
-227 226 0
-227 206 0
-227 205 -208 0
-227 -205 208 0
227 -226 205 208 -206 0
227 -226 -205 -208 -206 0
229 226 -205 0
229 -226 205 0
-229 226 205 0
-229 -226 -205 0
228 208 -206 0
228 -208 206 0
-228 208 206 0
-228 -208 -206 0
-230 229 0
-230 204 0
-230 203 -206 0
-230 -203 206 0
230 -229 203 206 -204 0
230 -229 -203 -206 -204 0
232 229 -203 0
232 -229 203 0
-232 229 203 0
-232 -229 -203 0
231 206 -204 0
231 -206 204 0
-231 206 204 0
-231 -206 -204 0
-233 232 0
-233 202 0
-233 201 -204 0
-233 -201 204 0
233 -232 201 204 -202 0
233 -232 -201 -204 -202 0
235 232 -201 0
235 -232 201 0
-235 232 201 0
-235 -232 -201 0
234 204 -202 0
234 -204 202 0
-234 204 202 0
-234 -204 -202 0
-236 235 0
-236 200 0
-236 199 -202 0
-236 -199 202 0
236 -235 199 202 -200 0
236 -235 -199 -202 -200 0
238 235 -199 0
238 -235 199 0
-238 235 199 0
-238 -235 -199 0
237 202 -200 0
237 -202 200 0
-237 202 200 0
-237 -202 -200 0
-239 238 0
-239 198 0
-239 197 -200 0
-239 -197 200 0
239 -238 197 200 -198 0
239 -238 -197 -200 -198 0
241 238 -197 0
241 -238 197 0
-241 238 197 0
-241 -238 -197 0
240 200 -198 0
240 -200 198 0
-240 200 198 0
-240 -200 -198 0
-242 241 0
-242 196 0
-242 195 -198 0
-242 -195 198 0
242 -241 195 198 -196 0
242 -241 -195 -198 -196 0
244 241 -195 0
244 -241 195 0
-244 241 195 0
-244 -241 -195 0
243 198 -196 0
243 -198 196 0
-243 198 196 0
-243 -198 -196 0
-245 244 0
-245 194 0
-245 193 -196 0
-245 -193 196 0
245 -244 193 196 -194 0
245 -244 -193 -196 -194 0
247 244 -193 0
247 -244 193 0
-247 244 193 0
-247 -244 -193 0
246 196 -194 0
246 -196 194 0
-246 196 194 0
-246 -196 -194 0
-248 247 0
-248 192 0
-248 191 -194 0
-248 -191 194 0
248 -247 191 194 -192 0
248 -247 -191 -194 -192 0
250 247 -191 0
250 -247 191 0
-250 247 191 0
-250 -247 -191 0
249 194 -192 0
249 -194 192 0
-249 194 192 0
-249 -194 -192 0
-251 250 0
-251 190 0
-251 189 -192 0
-251 -189 192 0
251 -250 189 192 -190 0
251 -250 -189 -192 -190 0
253 250 -189 0
253 -250 189 0
-253 250 189 0
-253 -250 -189 0
252 192 -190 0
252 -192 190 0
-252 192 190 0
-252 -192 -190 0
-254 253 0
-254 188 0
-254 187 -190 0
-254 -187 190 0
254 -253 187 190 -188 0
254 -253 -187 -190 -188 0
256 253 -187 0
256 -253 187 0
-256 253 187 0
-256 -253 -187 0
255 190 -188 0
255 -190 188 0
-255 190 188 0
-255 -190 -188 0
-257 256 0
-257 186 0
-257 185 -188 0
-257 -185 188 0
257 -256 185 188 -186 0
257 -256 -185 -188 -186 0
259 256 -185 0
259 -256 185 0
-259 256 185 0
-259 -256 -185 0
258 188 -186 0
258 -188 186 0
-258 188 186 0
-258 -188 -186 0
-260 259 0
-260 184 0
-260 183 -186 0
-260 -183 186 0
260 -259 183 186 -184 0
260 -259 -183 -186 -184 0
262 259 -183 0
262 -259 183 0
-262 259 183 0
-262 -259 -183 0
261 186 -184 0
261 -186 184 0
-261 186 184 0
-261 -186 -184 0
-263 262 0
-263 182 0
-263 181 -184 0
-263 -181 184 0
263 -262 181 184 -182 0
263 -262 -181 -184 -182 0
265 262 -181 0
265 -262 181 0
-265 262 181 0
-265 -262 -181 0
264 184 -182 0
264 -184 182 0
-264 184 182 0
-264 -184 -182 0
-266 265 0
-266 180 0
-266 179 -182 0
-266 -179 182 0
266 -265 179 182 -180 0
266 -265 -179 -182 -180 0
268 265 -179 0
268 -265 179 0
-268 265 179 0
-268 -265 -179 0
267 182 -180 0
267 -182 180 0
-267 182 180 0
-267 -182 -180 0
-269 268 0
-269 178 0
-269 177 -180 0
-269 -177 180 0
269 -268 177 180 -178 0
269 -268 -177 -180 -178 0
271 268 -177 0
271 -268 177 0
-271 268 177 0
-271 -268 -177 0
270 180 -178 0
270 -180 178 0
-270 180 178 0
-270 -180 -178 0
-272 271 0
-272 176 0
-272 175 -178 0
-272 -175 178 0
272 -271 175 178 -176 0
272 -271 -175 -178 -176 0
274 271 -175 0
274 -271 175 0
-274 271 175 0
-274 -271 -175 0
273 178 -176 0
273 -178 176 0
-273 178 176 0
-273 -178 -176 0
-275 274 0
-275 174 0
-275 173 -176 0
-275 -173 176 0
275 -274 173 176 -174 0
275 -274 -173 -176 -174 0
277 274 -173 0
277 -274 173 0
-277 274 173 0
-277 -274 -173 0
276 176 -174 0
276 -176 174 0
-276 176 174 0
-276 -176 -174 0
-278 277 0
-278 172 0
-278 171 -174 0
-278 -171 174 0
278 -277 171 174 -172 0
278 -277 -171 -174 -172 0
280 277 -171 0
280 -277 171 0
-280 277 171 0
-280 -277 -171 0
279 174 -172 0
279 -174 172 0
-279 174 172 0
-279 -174 -172 0
-281 280 0
-281 170 0
-281 169 -172 0
-281 -169 172 0
281 -280 169 172 -170 0
281 -280 -169 -172 -170 0
283 280 -169 0
283 -280 169 0
-283 280 169 0
-283 -280 -169 0
282 172 -170 0
282 -172 170 0
-282 172 170 0
-282 -172 -170 0
-284 283 0
-284 168 0
-284 167 -170 0
-284 -167 170 0
284 -283 167 170 -168 0
284 -283 -167 -170 -168 0
286 283 -167 0
286 -283 167 0
-286 283 167 0
-286 -283 -167 0
285 170 -168 0
285 -170 168 0
-285 170 168 0
-285 -170 -168 0
-287 286 0
-287 166 0
-287 165 -168 0
-287 -165 168 0
287 -286 165 168 -166 0
287 -286 -165 -168 -166 0
289 286 -165 0
289 -286 165 0
-289 286 165 0
-289 -286 -165 0
288 168 -166 0
288 -168 166 0
-288 168 166 0
-288 -168 -166 0
-290 289 0
-290 164 0
-290 163 -166 0
-290 -163 166 0
290 -289 163 166 -164 0
290 -289 -163 -166 -164 0
292 289 -163 0
292 -289 163 0
-292 289 163 0
-292 -289 -163 0
291 166 -164 0
291 -166 164 0
-291 166 164 0
-291 -166 -164 0
-293 292 0
-293 162 0
-293 161 -164 0
-293 -161 164 0
293 -292 161 164 -162 0
293 -292 -161 -164 -162 0
295 292 -161 0
295 -292 161 0
-295 292 161 0
-295 -292 -161 0
294 164 -162 0
294 -164 162 0
-294 164 162 0
-294 -164 -162 0
-296 295 0
-296 160 0
-296 159 -162 0
-296 -159 162 0
296 -295 159 162 -160 0
296 -295 -159 -162 -160 0
298 295 -159 0
298 -295 159 0
-298 295 159 0
-298 -295 -159 0
297 162 -160 0
297 -162 160 0
-297 162 160 0
-297 -162 -160 0
-299 298 0
-299 158 0
-299 157 -160 0
-299 -157 160 0
299 -298 157 160 -158 0
299 -298 -157 -160 -158 0
301 298 -157 0
301 -298 157 0
-301 298 157 0
-301 -298 -157 0
300 160 -158 0
300 -160 158 0
-300 160 158 0
-300 -160 -158 0
-302 301 0
-302 156 0
-302 155 -158 0
-302 -155 158 0
302 -301 155 158 -156 0
302 -301 -155 -158 -156 0
304 301 -155 0
304 -301 155 0
-304 301 155 0
-304 -301 -155 0
303 158 -156 0
303 -158 156 0
-303 158 156 0
-303 -158 -156 0
-305 304 0
-305 154 0
-305 153 -156 0
-305 -153 156 0
305 -304 153 156 -154 0
305 -304 -153 -156 -154 0
307 304 -153 0
307 -304 153 0
-307 304 153 0
-307 -304 -153 0
306 156 -154 0
306 -156 154 0
-306 156 154 0
-306 -156 -154 0
-308 307 0
-308 152 0
-308 151 -154 0
-308 -151 154 0
308 -307 151 154 -152 0
308 -307 -151 -154 -152 0
310 307 -151 0
310 -307 151 0
-310 307 151 0
-310 -307 -151 0
309 154 -152 0
309 -154 152 0
-309 154 152 0
-309 -154 -152 0
-311 310 0
-311 150 0
-311 149 -152 0
-311 -149 152 0
311 -310 149 152 -150 0
311 -310 -149 -152 -150 0
313 310 -149 0
313 -310 149 0
-313 310 149 0
-313 -310 -149 0
312 152 -150 0
312 -152 150 0
-312 152 150 0
-312 -152 -150 0
-314 313 0
-314 148 0
-314 147 -150 0
-314 -147 150 0
314 -313 147 150 -148 0
314 -313 -147 -150 -148 0
316 313 -147 0
316 -313 147 0
-316 313 147 0
-316 -313 -147 0
315 150 -148 0
315 -150 148 0
-315 150 148 0
-315 -150 -148 0
-317 316 0
-317 146 0
-317 145 -148 0
-317 -145 148 0
317 -316 145 148 -146 0
317 -316 -145 -148 -146 0
319 316 -145 0
319 -316 145 0
-319 316 145 0
-319 -316 -145 0
318 148 -146 0
318 -148 146 0
-318 148 146 0
-318 -148 -146 0
-320 319 0
-320 144 0
-320 143 -146 0
-320 -143 146 0
320 -319 143 146 -144 0
320 -319 -143 -146 -144 0
322 319 -143 0
322 -319 143 0
-322 319 143 0
-322 -319 -143 0
321 146 -144 0
321 -146 144 0
-321 146 144 0
-321 -146 -144 0
-323 322 0
-323 142 0
-323 141 -144 0
-323 -141 144 0
323 -322 141 144 -142 0
323 -322 -141 -144 -142 0
325 322 -141 0
325 -322 141 0
-325 322 141 0
-325 -322 -141 0
324 144 -142 0
324 -144 142 0
-324 144 142 0
-324 -144 -142 0
-326 325 0
-326 140 0
-326 139 -142 0
-326 -139 142 0
326 -325 139 142 -140 0
326 -325 -139 -142 -140 0
328 325 -139 0
328 -325 139 0
-328 325 139 0
-328 -325 -139 0
327 142 -140 0
327 -142 140 0
-327 142 140 0
-327 -142 -140 0
-329 328 0
-329 138 0
-329 137 -140 0
-329 -137 140 0
329 -328 137 140 -138 0
329 -328 -137 -140 -138 0
331 328 -137 0
331 -328 137 0
-331 328 137 0
-331 -328 -137 0
330 140 -138 0
330 -140 138 0
-330 140 138 0
-330 -140 -138 0
-332 331 0
-332 136 0
-332 135 -138 0
-332 -135 138 0
332 -331 135 138 -136 0
332 -331 -135 -138 -136 0
334 331 -135 0
334 -331 135 0
-334 331 135 0
-334 -331 -135 0
333 138 -136 0
333 -138 136 0
-333 138 136 0
-333 -138 -136 0
-335 334 0
-335 134 0
-335 133 -136 0
-335 -133 136 0
335 -334 133 136 -134 0
335 -334 -133 -136 -134 0
337 334 -133 0
337 -334 133 0
-337 334 133 0
-337 -334 -133 0
336 136 -134 0
336 -136 134 0
-336 136 134 0
-336 -136 -134 0
-338 337 0
-338 132 0
-338 131 -134 0
-338 -131 134 0
338 -337 131 134 -132 0
338 -337 -131 -134 -132 0
340 337 -131 0
340 -337 131 0
-340 337 131 0
-340 -337 -131 0
339 134 -132 0
339 -134 132 0
-339 134 132 0
-339 -134 -132 0
-341 340 0
-341 130 0
-341 129 -132 0
-341 -129 132 0
341 -340 129 132 -130 0
341 -340 -129 -132 -130 0
343 340 -129 0
343 -340 129 0
-343 340 129 0
-343 -340 -129 0
342 132 -130 0
342 -132 130 0
-342 132 130 0
-342 -132 -130 0
-344 343 0
-344 128 0
-344 127 -130 0
-344 -127 130 0
344 -343 127 130 -128 0
344 -343 -127 -130 -128 0
346 343 -127 0
346 -343 127 0
-346 343 127 0
-346 -343 -127 0
345 130 -128 0
345 -130 128 0
-345 130 128 0
-345 -130 -128 0
-347 346 0
-347 126 0
-347 125 -128 0
-347 -125 128 0
347 -346 125 128 -126 0
347 -346 -125 -128 -126 0
349 346 -125 0
349 -346 125 0
-349 346 125 0
-349 -346 -125 0
348 128 -126 0
348 -128 126 0
-348 128 126 0
-348 -128 -126 0
-350 349 0
-350 124 0
-350 123 -126 0
-350 -123 126 0
350 -349 123 126 -124 0
350 -349 -123 -126 -124 0
352 349 -123 0
352 -349 123 0
-352 349 123 0
-352 -349 -123 0
351 126 -124 0
351 -126 124 0
-351 126 124 0
-351 -126 -124 0
-353 352 0
-353 122 0
-353 121 -124 0
-353 -121 124 0
353 -352 121 124 -122 0
353 -352 -121 -124 -122 0
355 352 -121 0
355 -352 121 0
-355 352 121 0
-355 -352 -121 0
354 124 -122 0
354 -124 122 0
-354 124 122 0
-354 -124 -122 0
-356 355 0
-356 120 0
-356 119 -122 0
-356 -119 122 0
356 -355 119 122 -120 0
356 -355 -119 -122 -120 0
358 355 -119 0
358 -355 119 0
-358 355 119 0
-358 -355 -119 0
357 122 -120 0
357 -122 120 0
-357 122 120 0
-357 -122 -120 0
-359 358 0
-359 118 0
-359 117 -120 0
-359 -117 120 0
359 -358 117 120 -118 0
359 -358 -117 -120 -118 0
361 358 -117 0
361 -358 117 0
-361 358 117 0
-361 -358 -117 0
360 120 -118 0
360 -120 118 0
-360 120 118 0
-360 -120 -118 0
-362 361 0
-362 116 0
-362 115 -118 0
-362 -115 118 0
362 -361 115 118 -116 0
362 -361 -115 -118 -116 0
364 361 -115 0
364 -361 115 0
-364 361 115 0
-364 -361 -115 0
363 118 -116 0
363 -118 116 0
-363 118 116 0
-363 -118 -116 0
-365 364 0
-365 114 0
-365 113 -116 0
-365 -113 116 0
365 -364 113 116 -114 0
365 -364 -113 -116 -114 0
367 364 -113 0
367 -364 113 0
-367 364 113 0
-367 -364 -113 0
366 116 -114 0
366 -116 114 0
-366 116 114 0
-366 -116 -114 0
-368 367 0
-368 112 0
-368 111 -114 0
-368 -111 114 0
368 -367 111 114 -112 0
368 -367 -111 -114 -112 0
370 367 -111 0
370 -367 111 0
-370 367 111 0
-370 -367 -111 0
369 114 -112 0
369 -114 112 0
-369 114 112 0
-369 -114 -112 0
-371 370 0
-371 110 0
-371 109 -112 0
-371 -109 112 0
371 -370 109 112 -110 0
371 -370 -109 -112 -110 0
373 370 -109 0
373 -370 109 0
-373 370 109 0
-373 -370 -109 0
372 112 -110 0
372 -112 110 0
-372 112 110 0
-372 -112 -110 0
-374 373 0
-374 108 0
-374 107 -110 0
-374 -107 110 0
374 -373 107 110 -108 0
374 -373 -107 -110 -108 0
376 373 -107 0
376 -373 107 0
-376 373 107 0
-376 -373 -107 0
375 110 -108 0
375 -110 108 0
-375 110 108 0
-375 -110 -108 0
-377 376 0
-377 106 0
-377 105 -108 0
-377 -105 108 0
377 -376 105 108 -106 0
377 -376 -105 -108 -106 0
379 376 -105 0
379 -376 105 0
-379 376 105 0
-379 -376 -105 0
378 108 -106 0
378 -108 106 0
-378 108 106 0
-378 -108 -106 0
-380 379 0
-380 104 0
-380 103 -106 0
-380 -103 106 0
380 -379 103 106 -104 0
380 -379 -103 -106 -104 0
382 379 -103 0
382 -379 103 0
-382 379 103 0
-382 -379 -103 0
381 106 -104 0
381 -106 104 0
-381 106 104 0
-381 -106 -104 0
-383 382 0
-383 102 0
-383 101 -104 0
-383 -101 104 0
383 -382 101 104 -102 0
383 -382 -101 -104 -102 0
385 382 -101 0
385 -382 101 0
-385 382 101 0
-385 -382 -101 0
384 104 -102 0
384 -104 102 0
-384 104 102 0
-384 -104 -102 0
-386 385 0
-386 100 0
-386 99 -102 0
-386 -99 102 0
386 -385 99 102 -100 0
386 -385 -99 -102 -100 0
388 385 -99 0
388 -385 99 0
-388 385 99 0
-388 -385 -99 0
387 102 -100 0
387 -102 100 0
-387 102 100 0
-387 -102 -100 0
-389 388 0
-389 98 0
-389 97 -100 0
-389 -97 100 0
389 -388 97 100 -98 0
389 -388 -97 -100 -98 0
391 388 -97 0
391 -388 97 0
-391 388 97 0
-391 -388 -97 0
390 100 -98 0
390 -100 98 0
-390 100 98 0
-390 -100 -98 0
-392 391 0
-392 96 0
-392 95 -98 0
-392 -95 98 0
392 -391 95 98 -96 0
392 -391 -95 -98 -96 0
394 391 -95 0
394 -391 95 0
-394 391 95 0
-394 -391 -95 0
393 98 -96 0
393 -98 96 0
-393 98 96 0
-393 -98 -96 0
-395 394 0
-395 94 0
-395 93 -96 0
-395 -93 96 0
395 -394 93 96 -94 0
395 -394 -93 -96 -94 0
397 394 -93 0
397 -394 93 0
-397 394 93 0
-397 -394 -93 0
396 96 -94 0
396 -96 94 0
-396 96 94 0
-396 -96 -94 0
-398 397 0
-398 92 0
-398 91 -94 0
-398 -91 94 0
398 -397 91 94 -92 0
398 -397 -91 -94 -92 0
400 397 -91 0
400 -397 91 0
-400 397 91 0
-400 -397 -91 0
399 94 -92 0
399 -94 92 0
-399 94 92 0
-399 -94 -92 0
-401 400 0
-401 90 0
-401 89 -92 0
-401 -89 92 0
401 -400 89 92 -90 0
401 -400 -89 -92 -90 0
403 400 -89 0
403 -400 89 0
-403 400 89 0
-403 -400 -89 0
402 92 -90 0
402 -92 90 0
-402 92 90 0
-402 -92 -90 0
-404 403 0
-404 88 0
-404 87 -90 0
-404 -87 90 0
404 -403 87 90 -88 0
404 -403 -87 -90 -88 0
406 403 -87 0
406 -403 87 0
-406 403 87 0
-406 -403 -87 0
405 90 -88 0
405 -90 88 0
-405 90 88 0
-405 -90 -88 0
-407 406 0
-407 86 0
-407 85 -88 0
-407 -85 88 0
407 -406 85 88 -86 0
407 -406 -85 -88 -86 0
409 406 -85 0
409 -406 85 0
-409 406 85 0
-409 -406 -85 0
408 88 -86 0
408 -88 86 0
-408 88 86 0
-408 -88 -86 0
-410 409 0
-410 84 0
-410 83 -86 0
-410 -83 86 0
410 -409 83 86 -84 0
410 -409 -83 -86 -84 0
412 409 -83 0
412 -409 83 0
-412 409 83 0
-412 -409 -83 0
411 86 -84 0
411 -86 84 0
-411 86 84 0
-411 -86 -84 0
-413 412 0
-413 82 0
-413 81 -84 0
-413 -81 84 0
413 -412 81 84 -82 0
413 -412 -81 -84 -82 0
415 412 -81 0
415 -412 81 0
-415 412 81 0
-415 -412 -81 0
414 84 -82 0
414 -84 82 0
-414 84 82 0
-414 -84 -82 0
-416 415 0
-416 80 0
-416 79 -82 0
-416 -79 82 0
416 -415 79 82 -80 0
416 -415 -79 -82 -80 0
418 415 -79 0
418 -415 79 0
-418 415 79 0
-418 -415 -79 0
417 82 -80 0
417 -82 80 0
-417 82 80 0
-417 -82 -80 0
-419 418 0
-419 78 0
-419 77 -80 0
-419 -77 80 0
419 -418 77 80 -78 0
419 -418 -77 -80 -78 0
421 418 -77 0
421 -418 77 0
-421 418 77 0
-421 -418 -77 0
420 80 -78 0
420 -80 78 0
-420 80 78 0
-420 -80 -78 0
-422 421 0
-422 76 0
-422 75 -78 0
-422 -75 78 0
422 -421 75 78 -76 0
422 -421 -75 -78 -76 0
424 421 -75 0
424 -421 75 0
-424 421 75 0
-424 -421 -75 0
423 78 -76 0
423 -78 76 0
-423 78 76 0
-423 -78 -76 0
-425 424 0
-425 74 0
-425 73 -76 0
-425 -73 76 0
425 -424 73 76 -74 0
425 -424 -73 -76 -74 0
427 424 -73 0
427 -424 73 0
-427 424 73 0
-427 -424 -73 0
426 76 -74 0
426 -76 74 0
-426 76 74 0
-426 -76 -74 0
-428 427 0
-428 72 0
-428 71 -74 0
-428 -71 74 0
428 -427 71 74 -72 0
428 -427 -71 -74 -72 0
430 427 -71 0
430 -427 71 0
-430 427 71 0
-430 -427 -71 0
429 74 -72 0
429 -74 72 0
-429 74 72 0
-429 -74 -72 0
-431 430 0
-431 70 0
-431 69 -72 0
-431 -69 72 0
431 -430 69 72 -70 0
431 -430 -69 -72 -70 0
433 430 -69 0
433 -430 69 0
-433 430 69 0
-433 -430 -69 0
432 72 -70 0
432 -72 70 0
-432 72 70 0
-432 -72 -70 0
-434 433 0
-434 68 0
-434 67 -70 0
-434 -67 70 0
434 -433 67 70 -68 0
434 -433 -67 -70 -68 0
436 433 -67 0
436 -433 67 0
-436 433 67 0
-436 -433 -67 0
435 70 -68 0
435 -70 68 0
-435 70 68 0
-435 -70 -68 0
-437 436 0
-437 66 0
-437 65 -68 0
-437 -65 68 0
437 -436 65 68 -66 0
437 -436 -65 -68 -66 0
439 436 -65 0
439 -436 65 0
-439 436 65 0
-439 -436 -65 0
438 68 -66 0
438 -68 66 0
-438 68 66 0
-438 -68 -66 0
-440 439 0
-440 64 0
-440 63 -66 0
-440 -63 66 0
440 -439 63 66 -64 0
440 -439 -63 -66 -64 0
442 439 -63 0
442 -439 63 0
-442 439 63 0
-442 -439 -63 0
441 66 -64 0
441 -66 64 0
-441 66 64 0
-441 -66 -64 0
-443 442 0
-443 62 0
-443 61 -64 0
-443 -61 64 0
443 -442 61 64 -62 0
443 -442 -61 -64 -62 0
445 442 -61 0
445 -442 61 0
-445 442 61 0
-445 -442 -61 0
444 64 -62 0
444 -64 62 0
-444 64 62 0
-444 -64 -62 0
-446 445 0
-446 60 0
-446 59 -62 0
-446 -59 62 0
446 -445 59 62 -60 0
446 -445 -59 -62 -60 0
448 445 -59 0
448 -445 59 0
-448 445 59 0
-448 -445 -59 0
447 62 -60 0
447 -62 60 0
-447 62 60 0
-447 -62 -60 0
-449 448 0
-449 58 0
-449 57 -60 0
-449 -57 60 0
449 -448 57 60 -58 0
449 -448 -57 -60 -58 0
451 448 -57 0
451 -448 57 0
-451 448 57 0
-451 -448 -57 0
450 60 -58 0
450 -60 58 0
-450 60 58 0
-450 -60 -58 0
-452 451 0
-452 56 0
-452 55 -58 0
-452 -55 58 0
452 -451 55 58 -56 0
452 -451 -55 -58 -56 0
454 451 -55 0
454 -451 55 0
-454 451 55 0
-454 -451 -55 0
453 58 -56 0
453 -58 56 0
-453 58 56 0
-453 -58 -56 0
-455 454 0
-455 54 0
-455 53 -56 0
-455 -53 56 0
455 -454 53 56 -54 0
455 -454 -53 -56 -54 0
457 454 -53 0
457 -454 53 0
-457 454 53 0
-457 -454 -53 0
456 56 -54 0
456 -56 54 0
-456 56 54 0
-456 -56 -54 0
-458 457 0
-458 52 0
-458 51 -54 0
-458 -51 54 0
458 -457 51 54 -52 0
458 -457 -51 -54 -52 0
460 457 -51 0
460 -457 51 0
-460 457 51 0
-460 -457 -51 0
459 54 -52 0
459 -54 52 0
-459 54 52 0
-459 -54 -52 0
-461 460 0
-461 50 0
-461 49 -52 0
-461 -49 52 0
461 -460 49 52 -50 0
461 -460 -49 -52 -50 0
463 460 -49 0
463 -460 49 0
-463 460 49 0
-463 -460 -49 0
462 52 -50 0
462 -52 50 0
-462 52 50 0
-462 -52 -50 0
-464 463 0
-464 48 0
-464 47 -50 0
-464 -47 50 0
464 -463 47 50 -48 0
464 -463 -47 -50 -48 0
466 463 -47 0
466 -463 47 0
-466 463 47 0
-466 -463 -47 0
465 50 -48 0
465 -50 48 0
-465 50 48 0
-465 -50 -48 0
-467 466 0
-467 46 0
-467 45 -48 0
-467 -45 48 0
467 -466 45 48 -46 0
467 -466 -45 -48 -46 0
469 466 -45 0
469 -466 45 0
-469 466 45 0
-469 -466 -45 0
468 48 -46 0
468 -48 46 0
-468 48 46 0
-468 -48 -46 0
-470 469 0
-470 44 0
-470 43 -46 0
-470 -43 46 0
470 -469 43 46 -44 0
470 -469 -43 -46 -44 0
472 469 -43 0
472 -469 43 0
-472 469 43 0
-472 -469 -43 0
471 46 -44 0
471 -46 44 0
-471 46 44 0
-471 -46 -44 0
-473 472 0
-473 42 0
-473 41 -44 0
-473 -41 44 0
473 -472 41 44 -42 0
473 -472 -41 -44 -42 0
475 472 -41 0
475 -472 41 0
-475 472 41 0
-475 -472 -41 0
474 44 -42 0
474 -44 42 0
-474 44 42 0
-474 -44 -42 0
-476 475 0
-476 40 0
-476 39 -42 0
-476 -39 42 0
476 -475 39 42 -40 0
476 -475 -39 -42 -40 0
478 475 -39 0
478 -475 39 0
-478 475 39 0
-478 -475 -39 0
477 42 -40 0
477 -42 40 0
-477 42 40 0
-477 -42 -40 0
-479 478 0
-479 38 0
-479 37 -40 0
-479 -37 40 0
479 -478 37 40 -38 0
479 -478 -37 -40 -38 0
481 478 -37 0
481 -478 37 0
-481 478 37 0
-481 -478 -37 0
480 40 -38 0
480 -40 38 0
-480 40 38 0
-480 -40 -38 0
-482 481 0
-482 36 0
-482 35 -38 0
-482 -35 38 0
482 -481 35 38 -36 0
482 -481 -35 -38 -36 0
484 481 -35 0
484 -481 35 0
-484 481 35 0
-484 -481 -35 0
483 38 -36 0
483 -38 36 0
-483 38 36 0
-483 -38 -36 0
-485 484 0
-485 34 0
-485 33 -36 0
-485 -33 36 0
485 -484 33 36 -34 0
485 -484 -33 -36 -34 0
487 484 -33 0
487 -484 33 0
-487 484 33 0
-487 -484 -33 0
486 36 -34 0
486 -36 34 0
-486 36 34 0
-486 -36 -34 0
-488 487 0
-488 32 0
-488 31 -34 0
-488 -31 34 0
488 -487 31 34 -32 0
488 -487 -31 -34 -32 0
490 487 -31 0
490 -487 31 0
-490 487 31 0
-490 -487 -31 0
489 34 -32 0
489 -34 32 0
-489 34 32 0
-489 -34 -32 0
-491 490 0
-491 30 0
-491 29 -32 0
-491 -29 32 0
491 -490 29 32 -30 0
491 -490 -29 -32 -30 0
493 490 -29 0
493 -490 29 0
-493 490 29 0
-493 -490 -29 0
492 32 -30 0
492 -32 30 0
-492 32 30 0
-492 -32 -30 0
-494 493 0
-494 28 0
-494 27 -30 0
-494 -27 30 0
494 -493 27 30 -28 0
494 -493 -27 -30 -28 0
496 493 -27 0
496 -493 27 0
-496 493 27 0
-496 -493 -27 0
495 30 -28 0
495 -30 28 0
-495 30 28 0
-495 -30 -28 0
-497 496 0
-497 26 0
-497 25 -28 0
-497 -25 28 0
497 -496 25 28 -26 0
497 -496 -25 -28 -26 0
499 496 -25 0
499 -496 25 0
-499 496 25 0
-499 -496 -25 0
498 28 -26 0
498 -28 26 0
-498 28 26 0
-498 -28 -26 0
-500 499 0
-500 24 0
-500 23 -26 0
-500 -23 26 0
500 -499 23 26 -24 0
500 -499 -23 -26 -24 0
502 499 -23 0
502 -499 23 0
-502 499 23 0
-502 -499 -23 0
501 26 -24 0
501 -26 24 0
-501 26 24 0
-501 -26 -24 0
-503 502 0
-503 22 0
-503 21 -24 0
-503 -21 24 0
503 -502 21 24 -22 0
503 -502 -21 -24 -22 0
505 502 -21 0
505 -502 21 0
-505 502 21 0
-505 -502 -21 0
504 24 -22 0
504 -24 22 0
-504 24 22 0
-504 -24 -22 0
-506 505 0
-506 20 0
-506 19 -22 0
-506 -19 22 0
506 -505 19 22 -20 0
506 -505 -19 -22 -20 0
508 505 -19 0
508 -505 19 0
-508 505 19 0
-508 -505 -19 0
507 22 -20 0
507 -22 20 0
-507 22 20 0
-507 -22 -20 0
-509 508 0
-509 18 0
-509 17 -20 0
-509 -17 20 0
509 -508 17 20 -18 0
509 -508 -17 -20 -18 0
511 508 -17 0
511 -508 17 0
-511 508 17 0
-511 -508 -17 0
510 20 -18 0
510 -20 18 0
-510 20 18 0
-510 -20 -18 0
-512 511 0
-512 16 0
-512 15 -18 0
-512 -15 18 0
512 -511 15 18 -16 0
512 -511 -15 -18 -16 0
514 511 -15 0
514 -511 15 0
-514 511 15 0
-514 -511 -15 0
513 18 -16 0
513 -18 16 0
-513 18 16 0
-513 -18 -16 0
-515 514 0
-515 14 0
-515 13 -16 0
-515 -13 16 0
515 -514 13 16 -14 0
515 -514 -13 -16 -14 0
517 514 -13 0
517 -514 13 0
-517 514 13 0
-517 -514 -13 0
516 16 -14 0
516 -16 14 0
-516 16 14 0
-516 -16 -14 0
-518 517 0
-518 12 0
-518 11 -14 0
-518 -11 14 0
518 -517 11 14 -12 0
518 -517 -11 -14 -12 0
520 517 -11 0
520 -517 11 0
-520 517 11 0
-520 -517 -11 0
519 14 -12 0
519 -14 12 0
-519 14 12 0
-519 -14 -12 0
-521 520 0
-521 10 0
-521 9 -12 0
-521 -9 12 0
521 -520 9 12 -10 0
521 -520 -9 -12 -10 0
523 520 -9 0
523 -520 9 0
-523 520 9 0
-523 -520 -9 0
522 12 -10 0
522 -12 10 0
-522 12 10 0
-522 -12 -10 0
-524 523 0
-524 8 0
-524 7 -10 0
-524 -7 10 0
524 -523 7 10 -8 0
524 -523 -7 -10 -8 0
526 523 -7 0
526 -523 7 0
-526 523 7 0
-526 -523 -7 0
525 10 -8 0
525 -10 8 0
-525 10 8 0
-525 -10 -8 0
-527 526 0
-527 6 0
-527 5 -8 0
-527 -5 8 0
527 -526 5 8 -6 0
527 -526 -5 -8 -6 0
529 526 -5 0
529 -526 5 0
-529 526 5 0
-529 -526 -5 0
528 8 -6 0
528 -8 6 0
-528 8 6 0
-528 -8 -6 0
-530 529 0
-530 4 0
-530 3 -6 0
-530 -3 6 0
530 -529 3 6 -4 0
530 -529 -3 -6 -4 0
532 529 -3 0
532 -529 3 0
-532 529 3 0
-532 -529 -3 0
531 6 -4 0
531 -6 4 0
-531 6 4 0
-531 -6 -4 0
-533 532 0
-533 2 0
-533 1 -4 0
-533 -1 4 0
533 -532 1 4 -2 0
533 -532 -1 -4 -2 0
535 532 -1 0
535 -532 1 0
-535 532 1 0
-535 -532 -1 0
534 4 -2 0
534 -4 2 0
-534 4 2 0
-534 -4 -2 0
-535 0
-532 0
-534 0
-529 0
-531 0
-526 0
-528 0
-523 0
-525 0
-520 0
-522 0
-517 0
-519 0
-514 0
-516 0
-511 0
-513 0
-508 0
-510 0
-505 0
-507 0
-502 0
-504 0
-499 0
-501 0
-496 0
-498 0
-493 0
-495 0
-490 0
-492 0
-487 0
-489 0
-484 0
-486 0
-481 0
-483 0
-478 0
-480 0
-475 0
-477 0
-472 0
-474 0
-469 0
-471 0
-466 0
-468 0
-463 0
-465 0
-460 0
-462 0
-457 0
-459 0
-454 0
-456 0
-451 0
-453 0
-448 0
-450 0
-445 0
-447 0
-442 0
-444 0
-439 0
-441 0
-436 0
-438 0
-433 0
-435 0
-430 0
-432 0
-427 0
-429 0
-424 0
-426 0
-421 0
-423 0
-418 0
-420 0
-415 0
-417 0
-412 0
-414 0
-409 0
-411 0
-406 0
-408 0
-403 0
-405 0
-400 0
-402 0
-397 0
-399 0
-394 0
-396 0
-391 0
-393 0
-388 0
-390 0
-385 0
-387 0
-382 0
-384 0
-379 0
-381 0
-376 0
-378 0
-373 0
-375 0
-370 0
-372 0
-367 0
-369 0
-364 0
-366 0
-361 0
-363 0
-358 0
-360 0
-355 0
-357 0
-352 0
-354 0
-349 0
-351 0
-346 0
-348 0
-343 0
-345 0
-340 0
-342 0
-337 0
-339 0
-334 0
-336 0
-331 0
-333 0
-328 0
-330 0
-325 0
-327 0
-322 0
-324 0
-319 0
-321 0
-316 0
-318 0
-313 0
-315 0
-310 0
-312 0
-307 0
-309 0
-304 0
-306 0
-301 0
-303 0
-298 0
-300 0
-295 0
-297 0
-292 0
-294 0
-289 0
-291 0
-286 0
-288 0
-283 0
-285 0
-280 0
-282 0
-277 0
-279 0
-274 0
-276 0
-271 0
-273 0
-268 0
-270 0
-265 0
-267 0
-262 0
-264 0
-259 0
-261 0
-256 0
-258 0
-253 0
-255 0
-250 0
-252 0
-247 0
-249 0
-244 0
-246 0
-241 0
-243 0
-238 0
-240 0
-235 0
-237 0
-232 0
-234 0
-229 0
-231 0
-226 0
-228 0
-223 0
-225 0
-216 0
-222 0
